ingredients = {rice, beans, tomatoes, pepper, cheese, beef, mushrooms, paprika, wine, basil, bread, eggs};

meals = {chilli, risotto, shakshuka, soup, omelette};
% Chilli: rice, beans, toms, beef, paprika, wine.
% Risotto: rice, toms, cheese, mushrooms, wine, basil.
% Shakshuka: toms, pepper, cheese, paprika, basil, eggs.
% Soup: toms, mushrooms, basil, bread.
% Omelette: toms, pepper, mushrooms, eggs.
mealIngredients = [|
  true, true, true, false, false, true, false, true, true, false,       
   false, false
  |true, false, true, false, true, false, true, false, true, true,
   false, false
  |false, false, true, true, true, false, false, true, false, true,
   false, true
  |false, false, true, false, false, false, true, false, false, true,
   true, false
  |false, false, true, true, false, false, true, false, false, false,
   false, true   
  |]; 
  
people = {Sophie, HandsomeScientist, ToughHandyman, SturdyPilotZach, SweatyCook};

numPeople = 5;

% Sophie is vegetarian and allergic to milk.
% HandsomeScientist is vegan.
% ToughHandyman doesn't like spicy food.
% SturdyPilot is teetotal and allergic to gluten.
% ManlyCook eats everything.     
eats = [|
  true, true, true, true, false, false, true, true, true, true, true, 
  true
  |true, true, true, true, false, false, true, true, true, true,
   true, false
  |true, true, true, false, true, true, true, false, true, true,
   true, true
  |true, true, true, true, true, true, true, true, false, true,
   false, true
  |true, true, true, true, true, true, true, true, true, true,
   true, true|];